minizinc/sudoku_problems2/sudoku_p40.dzn
%
% sudoku_p40.dzn
% See http://www.hakank.org/minizinc/sudoku_gcc.mzn
% 
% This problem is problem 40 from
% Gecode's sudoku.cpp
% http://www.gecode.org/gecode-doc-latest/sudoku_8cpp-source.html
% 
x = array2d(1..n, 1..n, [   
% http://janko.at/Raetsel/Sudoku/307.a.htm
% 40
  _, 11, 12,  _,  _,  3,  2,  _,  _,  _,  9,  _,  _, 13,  _,  _,
  _,  3,  _,  _, 12, 11,  _,  _,  _,  5,  2, 10,  _,  9, 14,  4,
  7, 14,  _, 10,  _,  _,  _, 13,  8,  _,  6, 11,  2,  _,  _,  5,
  _,  _,  9, 15,  _,  _, 10,  _, 13, 12,  7,  _, 11,  6,  _,  _,
  _,  1,  5,  _,  _,  2,  _, 14,  _,  _,  3,  _,  _,  _,  4,  _,
  4, 16, 13,  8,  1,  _,  3, 12,  _,  _,  _,  7,  _,  _,  6, 15,
  _, 12,  _,  9,  _,  _,  _,  _, 14,  _,  4,  _, 16,  _,  _,  1,
  _,  _, 14,  3,  _,  _,  5,  9, 16,  _, 15, 13,  _, 11,  _,  _,
  _,  _, 10,  _,  2, 14,  _, 15, 12,  9,  _,  _,  8,  4,  _,  _,
 11,  _,  _, 14,  _,  9,  _,  4,  _,  _,  _,  _, 15,  _, 10,  _,
  1,  6,  _,  _, 10,  _,  _,  _,  5,  7,  _, 15,  3, 14,  9, 11,
  _,  9,  _,  _,  _,  6,  _,  _,  4,  _, 14,  _,  _,  7, 16,  _,
  _,  _,  6,  4,  _, 12,  8,  5,  _,  2,  _,  _, 13, 10,  _,  _,
 14,  _,  _, 13, 11,  1,  _,  2,  3,  _,  _,  _,  6,  _,  5,  9,
 12,  5, 16,  _,  9, 13,  4,  _,  _,  _,  1, 14,  _,  _,  2,  _,
  _,  _,  2,  _,  _, 15,  _,  _,  _, 13, 10,  _,  _, 12, 11,  _
]);

n = 16;


